<number of tasks>
50

<cycle time>
1000

<order strength>
0.201


<task times>
1 233
2 67
3 93
4 38
5 304
6 86
7 107
8 33
9 102
10 134
11 151
12 188
13 206
14 156
15 97
16 84
17 111
18 149
19 97
20 123
21 122
22 221
23 46
24 26
25 44
26 348
27 133
28 209
29 194
30 66
31 45
32 182
33 110
34 158
35 134
36 60
37 368
38 98
39 161
40 236
41 65
42 87
43 40
44 81
45 33
46 132
47 108
48 262
49 218
50 194

<precedence relations>
1,6
2,7
3,5
3,8
3,10
3,46
4,9
4,19
5,11
6,13
7,14
8,12
10,32
11,15
12,17
13,16
14,18
14,19
14,20
14,21
14,22
14,23
15,26
16,29
17,28
18,24
18,31
18,33
19,25
20,27
20,40
21,30
21,32
24,34
25,35
26,36
27,37
28,38
29,40
30,39
30,40
34,42
35,42
36,41
37,42
40,43
41,44
42,45
42,46
43,47
43,48
43,49
43,50

<end>
